p cnf 8 27
-7 -5 0
5 -1 0
-8 1 7 0
-6 -2 0
8 -2 0
-4 7 0
-4 0
6 7 0
-5 0
3 4 7 -5 0
-6 -5 6 0
1 -4 5 0
5 -2 7 0
-1 0
8 -3 4 -4 0
-7 5 4 -4 0
6 0
2 -1 0
4 -4 -2 0
-1 0
2 -4 0
-5 0
-5 7 0
-7 3 1 0
8 -4 -1 0
-7 3 5 0
-6 0
